c Generated map
c Size: 8 * 8, weights in range: 1 to 10, walls: True, with ratio 0.05
c dim 9 of 10
c
p sp 64 101
c graph contains 64 nodes and 101 arcs
c
a 1 9 5
a 9 1 5
a 1 2 2
a 2 1 2
a 2 10 1
a 10 2 1
a 2 3 2
a 3 2 2
a 3 11 5
a 11 3 5
a 3 4 10
a 4 3 10
a 4 12 3
a 12 4 3
a 4 5 6
a 5 4 6
a 5 13 7
a 13 5 7
a 7 15 6
a 15 7 6
a 7 8 6
a 8 7 6
a 8 16 8
a 16 8 8
a 9 17 7
a 17 9 7
a 9 10 2
a 10 9 2
a 10 18 4
a 18 10 4
a 10 11 3
a 11 10 3
a 11 19 10
a 19 11 10
a 11 12 1
a 12 11 1
a 12 20 4
a 20 12 4
a 12 13 9
a 13 12 9
a 13 21 9
a 21 13 9
a 13 14 7
a 14 13 7
a 14 22 9
a 22 14 9
a 14 15 1
a 15 14 1
a 15 23 4
a 23 15 4
a 15 16 6
a 16 15 6
a 16 24 5
a 24 16 5
a 17 25 5
a 25 17 5
a 17 18 8
a 18 17 8
a 18 26 9
a 26 18 9
a 18 19 7
a 19 18 7
a 19 27 1
a 27 19 1
a 19 20 7
a 20 19 7
a 20 28 6
a 28 20 6
a 20 21 5
a 21 20 5
a 21 29 2
a 29 21 2
a 21 22 3
a 22 21 3
a 22 23 8
a 23 22 8
a 23 31 6
a 31 23 6
a 23 24 3
a 24 23 3
a 24 32 7
a 32 24 7
a 25 33 10
a 33 25 10
a 25 26 4
a 26 25 4
a 26 34 1
a 34 26 1
a 26 27 10
a 27 26 10
a 27 35 5
a 35 27 5
a 27 28 7
a 28 27 7
a 28 36 1
a 36 28 1
a 28 29 10
a 29 28 10
a 29 37 8
a 37 29 8
a 31 39 3
a 39 31 3
a 31 32 1
a 32 31 1
a 32 40 8
a 40 32 8
a 33 41 5
a 41 33 5
a 33 34 2
a 34 33 2
a 34 35 8
a 35 34 8
a 35 43 9
a 43 35 9
a 35 36 8
a 36 35 8
a 36 44 5
a 44 36 5
a 36 37 8
a 37 36 8
a 37 45 10
a 45 37 10
a 37 38 4
a 38 37 4
a 38 46 5
a 46 38 5
a 38 39 8
a 39 38 8
a 39 47 7
a 47 39 7
a 39 40 7
a 40 39 7
a 40 48 2
a 48 40 2
a 41 49 1
a 49 41 1
a 43 51 8
a 51 43 8
a 43 44 10
a 44 43 10
a 44 52 3
a 52 44 3
a 44 45 1
a 45 44 1
a 45 53 6
a 53 45 6
a 45 46 6
a 46 45 6
a 46 54 10
a 54 46 10
a 46 47 3
a 47 46 3
a 47 55 6
a 55 47 6
a 47 48 10
a 48 47 10
a 48 56 7
a 56 48 7
a 49 57 10
a 57 49 10
a 49 50 6
a 50 49 6
a 50 58 5
a 58 50 5
a 50 51 5
a 51 50 5
a 51 59 10
a 59 51 10
a 51 52 5
a 52 51 5
a 52 60 2
a 60 52 2
a 52 53 5
a 53 52 5
a 53 61 7
a 61 53 7
a 53 54 8
a 54 53 8
a 54 62 9
a 62 54 9
a 54 55 6
a 55 54 6
a 55 63 8
a 63 55 8
a 55 56 10
a 56 55 10
a 56 64 4
a 64 56 4
a 57 58 5
a 58 57 5
a 58 59 7
a 59 58 7
a 59 60 1
a 60 59 1
a 60 61 3
a 61 60 3
a 61 62 3
a 62 61 3
a 62 63 1
a 63 62 1
a 63 64 8
a 64 63 8
